Version identifier: 20.1.0.0 | 2020-11-10 | 9bedb6d68
Tried aggregator 3 times.
MIP Presolve eliminated 2467 rows and 1246 columns.
MIP Presolve modified 6264 coefficients.
Aggregator did 224 substitutions.
Reduced MIP has 3718 rows, 2945 columns, and 12206 nonzeros.
Reduced MIP has 581 binaries, 2364 generals, 0 SOSs, and 0 indicators.
Presolve time = 0.04 sec. (16.61 ticks)
Probing fixed 80 vars, tightened 711 bounds.
Probing time = 0.01 sec. (1.55 ticks)
Tried aggregator 2 times.
Detecting symmetries...
MIP Presolve eliminated 1578 rows and 190 columns.
MIP Presolve modified 359 coefficients.
Aggregator did 52 substitutions.
Reduced MIP has 2088 rows, 2703 columns, and 6780 nonzeros.
Reduced MIP has 863 binaries, 1840 generals, 0 SOSs, and 0 indicators.
Presolve time = 0.02 sec. (10.38 ticks)
Probing time = 0.00 sec. (0.57 ticks)
Clique table members: 85.
MIP emphasis: balance optimality and feasibility.
MIP search method: dynamic search.
Parallel mode: deterministic, using up to 24 threads.
Root relaxation solution time = 0.02 sec. (5.71 ticks)

        Nodes                                         Cuts/
   Node  Left     Objective  IInf  Best Integer    Best Bound    ItCnt     Gap

      0     0        0.0000    81                      0.0000      546         
      0     0        0.0000   103                   Cuts: 213      780         
*     0+    0                           19.0000        0.0000           100.00%
*     0+    0                           16.0000        0.0000           100.00%
      0     0        0.0000    96       16.0000     Cuts: 215      983   62.50%
      0     0        0.0000    54       16.0000      Cuts: 97     1143   62.50%
      0     0        0.0400   164       16.0000      Cuts: 42     1348   62.50%
*     0+    0                           13.0000        6.0000            53.85%
      0     2        0.0400   133       13.0000       12.0000     1348    7.69%
Elapsed time = 1.25 sec. (246.44 ticks, tree = 0.02 MB, solutions = 3)
*   169    46      integral     0       12.0000       12.0000    18168    0.00%

Cover cuts applied:  41
Implied bound cuts applied:  295
Flow cuts applied:  2
Mixed integer rounding cuts applied:  21
Zero-half cuts applied:  117
Lift and project cuts applied:  18
Gomory fractional cuts applied:  48

Root node processing (before b&c):
  Real time             =    1.15 sec. (245.54 ticks)
Parallel b&c, 24 threads:
  Real time             =    2.33 sec. (198.29 ticks)
  Sync time (average)   =    2.05 sec.
  Wait time (average)   =    0.00 sec.
                          ------------
Total (root+branch&cut) =    3.48 sec. (443.83 ticks)

Solution status = Optimal
Solution LB = 12
Solution UB = 12
Runtime = 3.48689 seconds
	Command being timed: "/home/min/git_repos/CS598MEBProject/CNT-ILP/build/cnt -s 2 ./output/k8_n40/simC_c1_k8_n40_u3_s1_del04.input-right.cnp"
	User time (seconds): 49.06
	System time (seconds): 0.29
	Percent of CPU this job got: 1357%
	Elapsed (wall clock) time (h:mm:ss or m:ss): 0:03.63
	Average shared text size (kbytes): 0
	Average unshared data size (kbytes): 0
	Average stack size (kbytes): 0
	Average total size (kbytes): 0
	Maximum resident set size (kbytes): 196964
	Average resident set size (kbytes): 0
	Major (requiring I/O) page faults: 0
	Minor (reclaiming a frame) page faults: 79329
	Voluntary context switches: 13179
	Involuntary context switches: 6191
	Swaps: 0
	File system inputs: 56
	File system outputs: 16
	Socket messages sent: 0
	Socket messages received: 0
	Signals delivered: 0
	Page size (bytes): 4096
	Exit status: 0
